experiment/data/hgs-res/Vrp-Set-B-n34/Vrp-Set-B-n34-hgs/0.hgs1.vrp
NAME : 0
COMMENT : CVRP Instance
TYPE : CVRP
DIMENSION : 34
EDGE_WEIGHT_TYPE : EUC_2D
CAPACITY : 100
NODE_COORD_SECTION
1	28.0	57.0
2	76.0	46.0
3	67.0	5.0
4	84.0	22.0
5	73.0	6.0
6	67.0	72.0
7	68.0	74.0
8	68.0	6.0
9	76.0	7.0
10	91.0	30.0
11	80.0	0.0
12	0.0	25.0
13	73.0	13.0
14	76.0	81.0
15	92.0	30.0
16	69.0	80.0
17	90.0	30.0
18	71.0	77.0
19	83.0	47.0
20	79.0	47.0
21	74.0	6.0
22	68.0	6.0
23	72.0	0.0
24	80.0	0.0
25	91.0	25.0
26	71.0	73.0
27	78.0	10.0
28	85.0	24.0
29	75.0	80.0
30	87.0	24.0
31	0.0	7.0
32	71.0	78.0
33	74.0	0.0
34	76.0	0.0
DEMAND_SECTION
1	0
2	6
3	12
4	2
5	24
6	3
7	18
8	21
9	14
10	69
11	1
12	13
13	2
14	2
15	7
16	7
17	1
18	23
19	19
20	14
21	8
22	11
23	4
24	8
25	24
26	12
27	9
28	4
29	19
30	15
31	2
32	2
33	15
34	66
DEPOT_SECTION
1
-1
EOF
