experiment/data/hgs-res/Vrp-Set-B-n34/Vrp-Set-B-n34-hgs/0.hgs1.log
=========== Algorithm Parameters =================
---- nbGranular        is set to 20
---- mu                is set to 25
---- lambda            is set to 40
---- nbElite           is set to 4
---- nbClose           is set to 5
---- targetFeasible    is set to 0.2
---- seed              is set to 1234
---- nbIter            is set to 20000
---- timeLimit         is set to 0
---- useSwapStar       is set to 1
==================================================
----- READING INSTANCE: baseline_results/cvrp_hgs/Vrp-Set-B-n34/Vrp-Set-B-n34-hgs/0.hgs1.vrp
----- FLEET SIZE WAS NOT SPECIFIED: DEFAULT INITIALIZATION TO 9 VEHICLES
----- INSTANCE SUCCESSFULLY LOADED WITH 33 CLIENTS AND 9 VEHICLES
----- BUILDING INITIAL POPULATION
----- STARTING GENETIC ALGORITHM
It      0      2 | T(s) 0.04 | Feas 50 789.84 790.69 | Inf 60 764.46 764.62 | Div 0.24 0.10 | Feas 0.00 1.00 | Pen 1.84 0.85
It    500    502 | T(s) 0.20 | Feas 26 789.84 794.28 | Inf 53 747.04 747.20 | Div 0.39 0.10 | Feas 0.27 1.00 | Pen 1.60 0.38
It   1000   1002 | T(s) 0.34 | Feas 25 789.84 794.48 | Inf 53 775.26 775.77 | Div 0.38 0.12 | Feas 0.11 1.00 | Pen 2.00 0.17
It   1500   1502 | T(s) 0.49 | Feas 56 789.84 790.07 | Inf 47 758.86 761.58 | Div 0.21 0.17 | Feas 0.41 1.00 | Pen 1.77 0.10
It   2000   2002 | T(s) 0.63 | Feas 52 789.84 790.28 | Inf 44 763.92 767.00 | Div 0.23 0.18 | Feas 0.48 1.00 | Pen 1.84 0.10
It   2500   2502 | T(s) 0.78 | Feas 57 789.84 790.15 | Inf 58 766.53 766.71 | Div 0.23 0.11 | Feas 0.44 1.00 | Pen 1.87 0.10
It   3000   3002 | T(s) 0.92 | Feas 47 789.84 790.06 | Inf 33 746.57 750.51 | Div 0.23 0.20 | Feas 0.28 1.00 | Pen 1.59 0.10
It   3500   3502 | T(s) 1.07 | Feas 60 789.84 790.13 | Inf 29 774.68 780.73 | Div 0.19 0.25 | Feas 0.06 1.00 | Pen 1.99 0.10
It   4000   4002 | T(s) 1.21 | Feas 34 789.84 790.57 | Inf 34 758.34 763.18 | Div 0.29 0.22 | Feas 0.42 1.00 | Pen 1.76 0.10
It   4500   4502 | T(s) 1.36 | Feas 30 789.84 791.81 | Inf 30 763.39 769.06 | Div 0.34 0.23 | Feas 0.22 1.00 | Pen 1.83 0.10
It   5000   5002 | T(s) 1.51 | Feas 35 789.84 791.83 | Inf 31 765.99 771.23 | Div 0.33 0.23 | Feas 0.20 1.00 | Pen 1.87 0.10
It   5500   5502 | T(s) 1.66 | Feas 59 789.84 790.12 | Inf 63 765.99 766.13 | Div 0.21 0.10 | Feas 0.17 1.00 | Pen 1.87 0.10
It   6000   6002 | T(s) 1.80 | Feas 52 789.84 790.16 | Inf 58 750.66 750.87 | Div 0.22 0.10 | Feas 0.29 1.00 | Pen 1.65 0.10
It   6500   6502 | T(s) 1.96 | Feas 42 789.84 790.54 | Inf 52 779.78 781.01 | Div 0.27 0.14 | Feas 0.10 1.00 | Pen 2.06 0.10
It   7000   7002 | T(s) 2.10 | Feas 41 789.84 790.49 | Inf 36 762.86 767.45 | Div 0.27 0.20 | Feas 0.37 1.00 | Pen 1.82 0.10
It   7500   7502 | T(s) 2.25 | Feas 33 789.84 791.47 | Inf 52 743.45 744.66 | Div 0.33 0.14 | Feas 0.31 1.00 | Pen 1.55 0.10
It   8000   8002 | T(s) 2.40 | Feas 30 789.84 791.57 | Inf 37 770.78 775.88 | Div 0.34 0.21 | Feas 0.03 1.00 | Pen 1.93 0.10
It   8500   8502 | T(s) 2.55 | Feas 57 789.84 790.08 | Inf 50 754.90 755.59 | Div 0.20 0.13 | Feas 0.35 1.00 | Pen 1.71 0.10
It   9000   9002 | T(s) 2.69 | Feas 50 789.84 790.35 | Inf 65 759.80 760.00 | Div 0.25 0.11 | Feas 0.37 1.00 | Pen 1.78 0.10
It   9500   9502 | T(s) 2.84 | Feas 36 789.84 790.49 | Inf 28 762.33 769.19 | Div 0.29 0.26 | Feas 0.17 1.00 | Pen 1.81 0.10
It  10000  10002 | T(s) 2.99 | Feas 31 789.84 791.55 | Inf 65 764.91 764.96 | Div 0.34 0.08 | Feas 0.20 1.00 | Pen 1.85 0.10
It  10500  10502 | T(s) 3.14 | Feas 50 789.84 790.19 | Inf 56 764.91 765.10 | Div 0.24 0.11 | Feas 0.17 1.00 | Pen 1.85 0.10
It  11000  11002 | T(s) 3.28 | Feas 51 789.84 790.32 | Inf 31 764.91 769.87 | Div 0.25 0.22 | Feas 0.23 1.00 | Pen 1.85 0.10
It  11500  11502 | T(s) 3.43 | Feas 39 789.84 791.75 | Inf 54 764.91 765.07 | Div 0.32 0.11 | Feas 0.22 1.00 | Pen 1.85 0.10
It  12000  12002 | T(s) 3.58 | Feas 47 789.84 790.69 | Inf 47 791.19 793.01 | Div 0.28 0.15 | Feas 0.14 1.00 | Pen 2.22 0.10
It  12500  12502 | T(s) 3.72 | Feas 32 789.84 792.09 | Inf 54 767.53 767.98 | Div 0.35 0.12 | Feas 0.19 1.00 | Pen 1.89 0.10
It  13000  13002 | T(s) 3.87 | Feas 42 789.84 790.58 | Inf 43 767.53 770.27 | Div 0.28 0.17 | Feas 0.19 1.00 | Pen 1.89 0.10
It  13500  13502 | T(s) 4.02 | Feas 45 789.84 790.56 | Inf 37 749.70 753.83 | Div 0.27 0.20 | Feas 0.29 1.00 | Pen 1.64 0.10
It  14000  14002 | T(s) 4.17 | Feas 41 789.84 790.60 | Inf 32 778.58 783.41 | Div 0.27 0.22 | Feas 0.12 1.00 | Pen 2.04 0.10
It  14500  14502 | T(s) 4.31 | Feas 31 789.84 791.69 | Inf 65 761.80 762.09 | Div 0.34 0.11 | Feas 0.48 1.00 | Pen 1.81 0.10
It  15000  15002 | T(s) 4.46 | Feas 40 789.84 791.01 | Inf 26 764.37 771.76 | Div 0.30 0.27 | Feas 0.00 1.00 | Pen 1.84 0.10
It  15500  15502 | T(s) 4.61 | Feas 46 789.84 790.21 | Inf 26 749.23 758.27 | Div 0.25 0.29 | Feas 0.34 1.00 | Pen 1.63 0.10
It  16000  16002 | T(s) 4.76 | Feas 53 789.84 790.35 | Inf 27 777.99 785.08 | Div 0.24 0.27 | Feas 0.08 1.00 | Pen 2.04 0.10
It  16500  16502 | T(s) 4.90 | Feas 35 789.84 791.50 | Inf 55 761.28 763.63 | Div 0.33 0.17 | Feas 0.42 1.00 | Pen 1.80 0.10
It  17000  17002 | T(s) 5.04 | Feas 64 789.84 790.00 | Inf 26 763.83 772.26 | Div 0.18 0.28 | Feas 0.22 1.00 | Pen 1.84 0.10
It  17500  17502 | T(s) 5.19 | Feas 32 789.84 791.03 | Inf 49 744.28 745.28 | Div 0.32 0.13 | Feas 0.33 1.00 | Pen 1.56 0.10
It  18000  18002 | T(s) 5.34 | Feas 32 789.84 791.10 | Inf 49 766.44 767.19 | Div 0.33 0.13 | Feas 0.22 1.00 | Pen 1.87 0.10
It  18500  18502 | T(s) 5.49 | Feas 34 789.84 791.57 | Inf 38 766.44 770.98 | Div 0.32 0.21 | Feas 0.19 1.00 | Pen 1.87 0.10
It  19000  19002 | T(s) 5.64 | Feas 44 789.84 790.30 | Inf 25 751.06 761.23 | Div 0.26 0.29 | Feas 0.31 1.00 | Pen 1.66 0.10
It  19500  19502 | T(s) 5.80 | Feas 36 789.84 791.28 | Inf 49 780.28 782.31 | Div 0.32 0.15 | Feas 0.12 1.00 | Pen 2.07 0.10
----- GENETIC ALGORITHM FINISHED AFTER 20000 ITERATIONS. TIME SPENT: 6.01529
----- WRITING BEST SOLUTION IN : baseline_results/cvrp_hgs/Vrp-Set-B-n34/Vrp-Set-B-n34-hgs/0.hgs1.tour
