experiment/data/hgs-res/Vrp-Set-B-n34/Vrp-Set-B-n34-hgs/0.hgs1.tour
Route #1: 12 10 23 33 32 22
Route #2: 26 8 20 4 7 21 2
Route #3: 11 30 3 27 29 24 16 18 19 1
Route #4: 9 14
Route #5: 15 13 28 31 17 25 6 5
Cost 789.841
